1696415
37 28787
63
8673 223437 367981 401060 401061 401159 401160 402531 493726 493727 493728 525861 533605 541787 541788 541789 541790 541791 541792 541793 541794 541795 541796 541797 541798 541799 541800 541801 541802 541803 541804 541805 541806 541807 541808 541809 541811 541812 541813 541814 541815 541816 541817 541818 541819 541820 541821 541822 541823 541825 541826 541827 541828 541830 541831 541832 541833 541834 541835 541837 541838 275287 541810 
17033 693272
784131
